min: 76 x1_1 + 31 x1_2 + 12 x1_3 + 8 x1_4 + 9 x1_5 + 82 x1_6 + 6 x2_1 + 92 x2_2 + 1 x2_3 + 14 x2_4 + 15 x2_5 + 24 x2_6 + 67 x3_1 + 4 x3_2 + 44 x3_3 + 3 x3_4 + 20 x3_5 + 97 x3_6 + 71 x4_1 + 78 x4_2 + 18 x4_3 + 44 x4_4 + 95 x4_5 + 85 x4_6 + 41 x5_1 + 83 x5_2 + 48 x5_3 + 2 x5_4 + 100 x5_5 + 85 x5_6 + 82 x6_1 + 19 x6_2 + 55 x6_3 + 63 x6_4 + 31 x6_5 + 18 x6_6;

st
x1_1 + x1_2 + x1_3 + x1_4 + x1_5 + x1_6 <= 3269;
x2_1 + x2_2 + x2_3 + x2_4 + x2_5 + x2_6 <= 4430;
x3_1 + x3_2 + x3_3 + x3_4 + x3_5 + x3_6 <= 1167;
x4_1 + x4_2 + x4_3 + x4_4 + x4_5 + x4_6 <= 119;
x5_1 + x5_2 + x5_3 + x5_4 + x5_5 + x5_6 <= 989;
x6_1 + x6_2 + x6_3 + x6_4 + x6_5 + x6_6 <= 2087;

x1_1 + x2_1 + x3_1 + x4_1 + x5_1 + x6_1 = 1433;
x1_2 + x2_2 + x3_2 + x4_2 + x5_2 + x6_2 = 3073;
x1_3 + x2_3 + x3_3 + x4_3 + x5_3 + x6_3 = 1762;
x1_4 + x2_4 + x3_4 + x4_4 + x5_4 + x6_4 = 2995;
x1_5 + x2_5 + x3_5 + x4_5 + x5_5 + x6_5 = 4094;
x1_6 + x2_6 + x3_6 + x4_6 + x5_6 + x6_6 = 736;

x1_1 >= 0;
x1_2 >= 0;
x1_3 >= 0;
x1_4 >= 0;
x1_5 >= 0;
x1_6 >= 0;
x2_1 >= 0;
x2_2 >= 0;
x2_3 >= 0;
x2_4 >= 0;
x2_5 >= 0;
x2_6 >= 0;
x3_1 >= 0;
x3_2 >= 0;
x3_3 >= 0;
x3_4 >= 0;
x3_5 >= 0;
x3_6 >= 0;
x4_1 >= 0;
x4_2 >= 0;
x4_3 >= 0;
x4_4 >= 0;
x4_5 >= 0;
x4_6 >= 0;
x5_1 >= 0;
x5_2 >= 0;
x5_3 >= 0;
x5_4 >= 0;
x5_5 >= 0;
x5_6 >= 0;
x6_1 >= 0;
x6_2 >= 0;
x6_3 >= 0;
x6_4 >= 0;
x6_5 >= 0;
x6_6 >= 0;